SECTION Graph
Nodes 177
Edges 354
E 1 3 1
E 1 160 12
E 2 160 1
E 3 4 12
E 3 5 1
E 4 6 1
E 4 160 1
E 5 6 12
E 5 159 52
E 7 8 2
E 7 14 1
E 7 152 1
E 7 155 9
E 8 15 1
E 8 154 1
E 8 156 9
E 9 155 6
E 9 157 1
E 9 158 2
E 10 152 9
E 10 155 1
E 10 157 6
E 11 154 9
E 11 156 1
E 11 159 6
E 12 13 2
E 12 20 5
E 12 147 1
E 12 149 6
E 13 21 5
E 13 148 1
E 13 150 6
E 14 15 2
E 14 149 9
E 14 151 1
E 15 150 9
E 15 153 1
E 16 147 6
E 16 149 1
E 16 151 9
E 17 148 6
E 17 150 1
E 17 153 9
E 18 19 2
E 18 26 1
E 18 140 1
E 18 143 9
E 19 27 1
E 19 142 1
E 19 144 9
E 20 21 2
E 20 143 6
E 20 145 1
E 21 144 6
E 21 146 1
E 22 140 9
E 22 143 1
E 22 145 6
E 23 142 9
E 23 144 1
E 23 146 6
E 24 25 2
E 24 32 5
E 24 135 1
E 24 137 6
E 25 33 5
E 25 136 1
E 25 138 6
E 26 27 2
E 26 137 9
E 26 139 1
E 27 138 9
E 27 141 1
E 28 135 6
E 28 137 1
E 28 139 9
E 29 136 6
E 29 138 1
E 29 141 9
E 30 31 2
E 30 38 1
E 30 128 1
E 30 131 9
E 31 39 1
E 31 130 1
E 31 132 9
E 32 33 2
E 32 131 6
E 32 133 1
E 33 132 6
E 33 134 1
E 34 128 9
E 34 131 1
E 34 133 6
E 35 130 9
E 35 132 1
E 35 134 6
E 36 37 2
E 36 44 5
E 36 123 1
E 36 125 6
E 37 45 5
E 37 124 1
E 37 126 6
E 38 39 2
E 38 125 9
E 38 127 1
E 39 126 9
E 39 129 1
E 40 123 6
E 40 125 1
E 40 127 9
E 41 124 6
E 41 126 1
E 41 129 9
E 42 43 2
E 42 50 1
E 42 116 1
E 42 119 9
E 43 51 1
E 43 118 1
E 43 120 9
E 44 45 2
E 44 119 6
E 44 121 1
E 45 120 6
E 45 122 1
E 46 116 9
E 46 119 1
E 46 121 6
E 47 118 9
E 47 120 1
E 47 122 6
E 48 49 2
E 48 56 5
E 48 111 1
E 48 113 6
E 49 57 5
E 49 112 1
E 49 114 6
E 50 51 2
E 50 113 9
E 50 115 1
E 51 114 9
E 51 117 1
E 52 111 6
E 52 113 1
E 52 115 9
E 53 112 6
E 53 114 1
E 53 117 9
E 54 55 2
E 54 62 1
E 54 104 1
E 54 107 9
E 55 63 1
E 55 106 1
E 55 108 9
E 56 57 2
E 56 107 6
E 56 109 1
E 57 108 6
E 57 110 1
E 58 104 9
E 58 107 1
E 58 109 6
E 59 106 9
E 59 108 1
E 59 110 6
E 60 61 2
E 60 68 5
E 60 99 1
E 60 101 6
E 61 69 5
E 61 100 1
E 61 102 6
E 62 63 2
E 62 101 9
E 62 103 1
E 63 102 9
E 63 105 1
E 64 99 6
E 64 101 1
E 64 103 9
E 65 100 6
E 65 102 1
E 65 105 9
E 66 67 2
E 66 74 1
E 66 92 1
E 66 95 9
E 67 75 1
E 67 94 1
E 67 96 9
E 68 69 2
E 68 95 6
E 68 97 1
E 69 96 6
E 69 98 1
E 70 92 9
E 70 95 1
E 70 97 6
E 71 94 9
E 71 96 1
E 71 98 6
E 72 73 2
E 72 78 5
E 72 87 1
E 72 89 6
E 73 79 5
E 73 88 1
E 73 90 6
E 74 75 2
E 74 89 9
E 74 91 1
E 75 90 9
E 75 93 1
E 76 87 6
E 76 89 1
E 76 91 9
E 77 88 6
E 77 90 1
E 77 93 9
E 78 79 2
E 78 83 6
E 78 85 1
E 79 84 6
E 79 86 1
E 80 83 1
E 80 85 6
E 81 84 1
E 81 86 6
E 82 157 168
E 83 84 2
E 85 87 5
E 86 88 5
E 89 90 2
E 91 92 1
E 93 94 1
E 95 96 2
E 97 99 5
E 98 100 5
E 101 102 2
E 103 104 1
E 105 106 1
E 107 108 2
E 109 111 5
E 110 112 5
E 113 114 2
E 115 116 1
E 117 118 1
E 119 120 2
E 121 123 5
E 122 124 5
E 125 126 2
E 127 128 1
E 129 130 1
E 131 132 2
E 133 135 5
E 134 136 5
E 137 138 2
E 139 140 1
E 141 142 1
E 143 144 2
E 145 147 5
E 146 148 5
E 149 150 2
E 151 152 1
E 153 154 1
E 155 156 2
E 156 158 6
E 158 159 1
E 1 161 100000
E 2 161 100000
E 3 162 100000
E 4 162 100000
E 5 163 100000
E 6 163 100000
E 7 164 100000
E 8 164 100000
E 9 164 100000
E 10 164 100000
E 11 164 100000
E 12 165 100000
E 13 165 100000
E 14 165 100000
E 15 165 100000
E 16 165 100000
E 17 165 100000
E 18 166 100000
E 19 166 100000
E 20 166 100000
E 21 166 100000
E 22 166 100000
E 23 166 100000
E 24 167 100000
E 25 167 100000
E 26 167 100000
E 27 167 100000
E 28 167 100000
E 29 167 100000
E 30 168 100000
E 31 168 100000
E 32 168 100000
E 33 168 100000
E 34 168 100000
E 35 168 100000
E 36 169 100000
E 37 169 100000
E 38 169 100000
E 39 169 100000
E 40 169 100000
E 41 169 100000
E 42 170 100000
E 43 170 100000
E 44 170 100000
E 45 170 100000
E 46 170 100000
E 47 170 100000
E 48 171 100000
E 49 171 100000
E 50 171 100000
E 51 171 100000
E 52 171 100000
E 53 171 100000
E 54 172 100000
E 55 172 100000
E 56 172 100000
E 57 172 100000
E 58 172 100000
E 59 172 100000
E 60 173 100000
E 61 173 100000
E 62 173 100000
E 63 173 100000
E 64 173 100000
E 65 173 100000
E 66 174 100000
E 67 174 100000
E 68 174 100000
E 69 174 100000
E 70 174 100000
E 71 174 100000
E 72 175 100000
E 73 175 100000
E 74 175 100000
E 75 175 100000
E 76 175 100000
E 77 175 100000
E 78 176 100000
E 79 176 100000
E 80 176 100000
E 81 176 100000
E 82 177 100000
END

SECTION Terminals
Terminals 17
T 161
T 162
T 163
T 164
T 165
T 166
T 167
T 168
T 169
T 170
T 171
T 172
T 173
T 174
T 175
T 176
T 177
END

EOF
